
===== New CPLEX run =====
Instance: /home/yorig/tuner/mpils-tests/instances/miplib/easy/lotsize.mps
Config: /scratch/yorig/mpils-results-grid-seconds-5-watchdog/easy/24proc/seed-5/4_lotsize_seed-5_20260504_011421/expansion/config_param_CPXPARAM_Preprocessing_Relax_0_iter_4.prm
========================

Selected objective sense:  MINIMIZE
Selected objective  name:  R1921
Selected RHS        name:  B
Selected bound      name:  BOUND
Wall watchdog: enabled factor=1 grace=1 limit=6 seconds
Version identifier: 22.1.2.0 | 2024-11-26 | 0edbb82fd
CPXPARAM_Threads                                 8
CPXPARAM_Parallel                                1
CPXPARAM_MIP_Cuts_Cliques                        2
CPXPARAM_Preprocessing_CoeffReduce               3
CPXPARAM_MIP_Cuts_Covers                         1
CPXPARAM_MIP_Strategy_SubAlgorithm               2
CPXPARAM_Preprocessing_Relax                     0
CPXPARAM_MIP_Cuts_FlowCovers                     2
CPXPARAM_MIP_Cuts_GUBCovers                      2
CPXPARAM_MIP_Limits_GomoryCand                   100
CPXPARAM_MIP_Cuts_PathCut                        2
CPXPARAM_MIP_Cuts_MIRCut                         2
CPXPARAM_MIP_Cuts_Disjunctive                    2
CPXPARAM_MIP_Limits_AggForCut                    10
CPXPARAM_Preprocessing_Symmetry                  2
CPXPARAM_Barrier_Ordering                        2
CPXPARAM_Preprocessing_Fill                      20
CPXPARAM_TimeLimit                               5
CPXPARAM_MIP_Limits_CutsFactor                   8
Tried aggregator 1 time.
MIP Presolve eliminated 595 rows and 0 columns.
MIP Presolve added 1190 rows and 0 columns.
MIP Presolve modified 10 coefficients.
Reduced MIP has 2515 rows, 2985 columns, and 7755 nonzeros.
Reduced MIP has 1195 binaries, 0 generals, 0 SOSs, and 0 indicators.
Presolve time = 0.00 sec. (4.57 ticks)
Probing fixed 0 vars, tightened 5487 bounds.
Probing time = 0.01 sec. (18.38 ticks)
Tried aggregator 2 times.
MIP Presolve modified 1206 coefficients.
Aggregator did 10 substitutions.
Reduced MIP has 2505 rows, 2975 columns, and 7735 nonzeros.
Reduced MIP has 1195 binaries, 0 generals, 0 SOSs, and 0 indicators.
Presolve time = 0.00 sec. (5.33 ticks)
Probing fixed 0 vars, tightened 2401 bounds.
Probing time = 0.00 sec. (6.41 ticks)
Clique table members: 190.
MIP emphasis: balance optimality and feasibility.
MIP search method: dynamic search.
Parallel mode: deterministic, using up to 8 threads.
Root relaxation solution time = 0.01 sec. (10.72 ticks)

        Nodes                                         Cuts/
   Node  Left     Objective  IInf  Best Integer    Best Bound    ItCnt     Gap

      0     0   348385.3466   471                 348385.3466     1432         
      0     0   591373.0472   436                   Cuts: 726     2654         
      0     0   830827.4628   694                   Cuts: 726     3635         
*     0+    0                       1.01740e+07   830827.4628            91.83%
*     0+    0                      7973370.0000   830827.4628            89.58%
      0     0   999306.2521   663  7973370.0000     Cuts: 726     4440   87.47%
      0     0  1108197.9418   689  7973370.0000     Cuts: 726     5210   86.10%
      0     0  1199829.7616   707  7973370.0000     Cuts: 726     6194   84.95%
Detecting symmetries...
*     0+    0                      1996887.0000  1199829.7616            39.91%
      0     0  1260626.7154   706  1996887.0000     Cuts: 726     7289   36.87%
      0     0  1305611.0855   730  1996887.0000     Cuts: 726     8034   34.62%
      0     0  1337614.6817   712  1996887.0000     Cuts: 726     8708   33.02%
      0     0  1365620.0672   761  1996887.0000     Cuts: 726     9324   31.61%
      0     0  1382532.3363   746  1996887.0000     Cuts: 726     9927   30.77%
      0     0  1395665.4519   765  1996887.0000     Cuts: 726    10471   30.11%
      0     0  1404425.0942   790  1996887.0000     Cuts: 726    11020   29.67%
      0     0  1412541.3699   804  1996887.0000     Cuts: 726    11498   29.26%
      0     0  1419030.5881   813  1996887.0000     Cuts: 726    12146   28.94%
      0     0  1423587.7824   812  1996887.0000     Cuts: 668    12581   28.71%
      0     0  1426888.2917   818  1996887.0000     Cuts: 476    13022   28.54%
      0     0  1429509.2986   852  1996887.0000     Cuts: 444    13400   28.41%
*     0+    0                      1996587.0000  1429509.2986            28.40%
      0     0  1430962.7477   833  1996587.0000     Cuts: 578    13643   28.33%
*     0+    0                      1984070.0000  1430962.7477            27.88%
      0     0  1432215.2891   845  1984070.0000     Cuts: 296    13886   27.81%
      0     0  1433399.2513   816  1984070.0000     Cuts: 276    14128   27.75%
      0     0  1433877.7078   830  1984070.0000     Cuts: 231    14313   27.73%
      0     0  1434554.8462   826  1984070.0000     Cuts: 245    14500   27.70%
      0     0  1434871.0565   832  1984070.0000     Cuts: 167    14613   27.68%
      0     0  1435483.4647   836  1984070.0000     Cuts: 124    14728   27.65%
      0     0  1435775.9401   835  1984070.0000     Cuts: 221    14844   27.63%
Advanced basis not built.

GUB cover cuts applied:  0
Clique cuts applied:  1
Cover cuts applied:  10
Implied bound cuts applied:  22
Flow cuts applied:  607
Mixed integer rounding cuts applied:  999
Flow path cuts applied:  6
Multi commodity flow cuts applied:  12
Gomory fractional cuts applied:  1
Disjunctive cuts applied:  0
Cone linearizations applied:  0

Root node processing (before b&c):
  Real time             =    5.01 sec. (7877.14 ticks)
Parallel b&c, 8 threads:
  Real time             =    0.00 sec. (0.00 ticks)
  Sync time (average)   =    0.00 sec.
  Wait time (average)   =    0.00 sec.
                          ------------
Total (root+branch&cut) =    5.01 sec. (7877.14 ticks)
Gap: 27.63%
Upper bound: 1.98407e+06
Lower bound: 1.43578e+06
Termination status: Normal
End of CPLEX run. Time: 5.01275 seconds
